<instance format="XCSP3" type="CSP">
  <variables>
    <var id="x0"> 9 14..17 </var>
    <var id="x1"> 3 9 14 17 </var>
    <var id="x2"> 12 14 16 17 </var>
    <var id="x3"> 3 9 14 15 </var>
    <var id="x4"> 2 3 9 12 14 16 </var>
    <var id="x5"> 3 9 14 </var>
    <var id="x6"> 3 9 14..17 </var>
    <var id="x7"> 2 3 14..16 </var>
    <var id="x8"> 0 5 8 16 </var>
    <var id="x9"> 3 12 16 </var>
    <var id="x10"> 3 5 14 </var>
    <var id="x11"> 5 12 </var>
    <var id="x12"> 0 3 5 8 16 </var>
    <var id="x13"> 0 3 5 16 </var>
    <var id="x14"> 3 14 16 </var>
    <var id="x15"> 2 3 5 8 14 16 </var>
    <var id="x16"> 3 6 7 17 </var>
    <var id="x17"> 3 6 7 12 16 </var>
    <var id="x18"> 6 7 12 16 </var>
    <var id="x19"> 3 11 12 16 </var>
    <var id="x20"> 3 6 16 17 </var>
    <var id="x21"> 3 11 16 </var>
    <var id="x22"> 3 7 16 17 </var>
    <var id="x23"> 6 15 16 </var>
    <var id="x24"> 4 5 15 </var>
    <var id="x25"> 4 5 7 16 </var>
    <var id="x26"> 3..5 16 </var>
    <var id="x27"> 3..5 16 </var>
    <var id="x28"> 3 6 16 </var>
    <var id="x29"> 1 3..5 </var>
    <var id="x30"> 3 5 15 16 </var>
    <var id="x31"> 5 8 10 15 16 </var>
    <var id="x32"> 5 8..10 15 </var>
    <var id="x33"> 5 16 </var>
    <var id="x34"> 3 5 8 9 16 </var>
    <var as="x34" id="x35"/>
    <var id="x36"> 3 5 9 10 16 </var>
    <var id="x37"> 3 9 15 16 </var>
    <var id="x38"> 0 5 6 </var>
    <var id="x39"> 0 5..7 12 14 </var>
    <var id="x40"> 0 4 5 7 12 14 </var>
    <var id="x41"> 5 6 12 14 </var>
    <var id="x42"> 5 6 9 14 </var>
    <var id="x43"> 6 9 12 14 </var>
    <var id="x44"> 4 5 9 14 </var>
    <var id="x45"> 4 7 9 14 </var>
    <var id="x46"> 0 6 8 14 16 17 </var>
    <var id="x47"> 8 14 </var>
    <var id="x48"> 0 14 16 17 </var>
    <var id="x49"> 2 3 8 14 16 </var>
    <var id="x50"> 2 3 6 14 </var>
    <var id="x51"> 17 </var>
    <var id="x52"> 0 3 6 8 16 17 </var>
    <var id="x53"> 0 3 16 </var>
    <var id="x54"> 3 5 6 9 14 </var>
    <var id="x55"> 5 6 10 </var>
    <var id="x56"> 3 5 9 14 </var>
    <var id="x57"> 3 5 6 10 12 14 </var>
    <var id="x58"> 5 10 12 </var>
    <var id="x59"> 3 6 9 12 14 </var>
    <var id="x60"> 3 5 6 9 </var>
    <var as="x54" id="x61"/>
    <var id="x62"> 3 4 6 16 </var>
    <var id="x63"> 4 5 14 16 </var>
    <var id="x64"> 3..5 9 16 </var>
    <var id="x65"> 3 5 6 14 </var>
    <var id="x66"> 4 5 15 </var>
    <var id="x67"> 3 5 6 9 16 </var>
    <var id="x68"> 3..5 9 14 </var>
    <var id="x69"> 0 9 15..17 </var>
    <var id="x70"> 0 3 9 17 </var>
    <var id="x71"> 0 16 </var>
    <var id="x72"> 9 10 15 </var>
    <var id="x73"> 3 9 11 16 </var>
    <var id="x74"> 3 9 15 </var>
    <var id="x75"> 0 3 9..11 16 </var>
    <var id="x76"> 3 9 15..17 </var>
    <var id="x77"> 0 9 16 </var>
    <var id="x78"> 0 1 5 16 </var>
    <var id="x79"> 0 1 5 7 16 </var>
    <var id="x80"> 5 9 </var>
    <var id="x81"> 5 7 13 </var>
    <var id="x82"> 3 9 13 16 </var>
    <var id="x83"> 1 3 5 9 </var>
    <var id="x84"> 3 5 16 </var>
    <var id="x85"> 6 8 16 </var>
    <var id="x86"> 5 6 8 16 </var>
    <var id="x87"> 4 5 8 12 </var>
    <var id="x88"> 3..5 8 16 </var>
    <var id="x89"> 3 5 6 12 </var>
    <var id="x90"> 3 5 6 </var>
    <var id="x91"> 3 6 12 13 16 </var>
    <var id="x92"> 3 5 13 16 </var>
    <var id="x93"> 3 5 9 14 17 </var>
    <var id="x94"> 1 3 4 16 </var>
    <var id="x95"> 1 5 14 16 </var>
    <var id="x96"> 3..5 9 14 16 </var>
    <var id="x97"> 3..5 9 16 </var>
    <var id="x98"> 1 3 5 9 14 </var>
    <var id="x99"> 3 9 14 16 </var>
    <var id="x100"> 3 4 9 14 16 17 </var>
    <var id="x101"> 4 10 16 </var>
    <var id="x102"> 4 5 8..10 14 15 </var>
    <var id="x103"> 4 5 14 16 </var>
    <var id="x104"> 4 5 8 9 14 16 </var>
    <var id="x105"> 4 5 8 9 16 </var>
    <var id="x106"> 5 10 14 </var>
    <var id="x107"> 5 8 9 16 </var>
    <var id="x108"> 5 8 10 14..16 </var>
    <var id="x109"> 0 5 14 </var>
    <var id="x110"> 1 10 12 </var>
    <var id="x111"> 0 1 5 12 14 </var>
    <var id="x112"> 2 5 8 14 </var>
    <var id="x113"> 2 5 10 12 14 </var>
    <var id="x114"> 5 10 12 </var>
    <var id="x115"> 14 </var>
    <var id="x116"> 2 5 8 10 14 </var>
    <var id="x117"> 5..7 14 </var>
    <var id="x118"> 1 5 6 8 10 </var>
    <var id="x119"> 1 4 6 7 10 </var>
    <var id="x120"> 4 5 8 10 14 </var>
    <var id="x121"> 4 5 8 </var>
    <var id="x122"> 6 14 </var>
    <var id="x123"> 5 10 </var>
    <var id="x124"> 1 4 5 14 </var>
    <var id="x125"> 9 14 </var>
    <var id="x126"> 7 10 12 </var>
    <var id="x127"> 5 7 12 14 </var>
    <var id="x128"> 5 9 14 </var>
    <var id="x129"> 5 7 10 12 13 </var>
    <var id="x130"> 5 9 </var>
    <var id="x131"> 5 9 11 14 </var>
    <var id="x132"> 5 10 14 </var>
    <var id="x133"> 0 6 9 14 15 17 </var>
    <var id="x134"> 0 5 6 15 </var>
    <var id="x135"> 0 5 6 14 </var>
    <var id="x136"> 0 4 5 14 17 </var>
    <var id="x137"> 4 5 9 </var>
    <var id="x138"> 4 5 15 17 </var>
    <var id="x139"> 0 5 9 </var>
    <var id="x140"> 5 14 15 </var>
  </variables>
  <constraints>
    <group>
      <allDifferent> %... </allDifferent>
      <args> x0 x1 x2 x3 x4 x5 x6 x7 </args>
      <args> x8 x9 x10 x11 x12 x13 x14 x15 </args>
      <args> x16 x17 x18 x19 x20 x21 x22 </args>
      <args> x23 x24 x25 x26 x27 x28 x29 x30 </args>
      <args> x31 x32 x33 x34 x35 x36 x37 </args>
      <args> x38 x39 x40 x41 x42 x43 x44 x45 </args>
      <args> x46 x47 x48 x49 x50 x51 x52 x53 </args>
      <args> x54 x55 x56 x57 x58 x59 x60 </args>
      <args> x61 x62 x63 x64 x65 x66 x67 x68 </args>
      <args> x69 x70 x71 x72 x73 x74 x75 x76 </args>
      <args> x77 x78 x79 x80 x81 x82 x83 x84 </args>
      <args> x85 x86 x87 x88 x89 x90 x91 x92 </args>
      <args> x93 x94 x95 x96 x97 x98 x99 x100 </args>
      <args> x101 x102 x103 x104 x105 x106 x107 x108 </args>
      <args> x109 x110 x111 x112 x113 x114 x115 x116 </args>
      <args> x117 x118 x119 x120 x121 x122 x123 x124 </args>
      <args> x125 x126 x127 x128 x129 x130 x131 x132 </args>
      <args> x133 x134 x135 x136 x137 x138 x139 x140 </args>
      <args> x0 x23 x46 x69 x77 x85 x125 x133 </args>
      <args> x1 x16 x54 x61 x70 x93 x109 x117 </args>
      <args> x8 x31 x38 x55 x78 x86 x118 x134 </args>
      <args> x9 x17 x62 x94 x101 x110 x119 x126 </args>
      <args> x18 x39 x71 x79 x95 x111 x127 x135 </args>
      <args> x24 x32 x47 x72 x80 x87 x102 x120 </args>
      <args> x2 x25 x33 x40 x48 x63 x103 x136 </args>
      <args> x26 x34 x49 x56 x88 x96 x104 x112 </args>
      <args> x19 x27 x64 x73 x97 x105 x121 x137 </args>
      <args> x41 x50 x57 x65 x89 x106 x113 </args>
      <args> x3 x10 x42 x74 x90 x98 x128 </args>
      <args> x11 x51 x58 x66 x81 x114 x129 x138 </args>
      <args> x4 x28 x43 x59 x82 x91 x99 x122 </args>
      <args> x12 x20 x35 x52 x60 x67 x107 x130 </args>
      <args> x13 x21 x36 x53 x75 x92 x123 x139 </args>
      <args> x5 x29 x44 x68 x83 x124 x131 </args>
      <args> x6 x14 x22 x37 x45 x76 x100 x115 </args>
      <args> x7 x15 x30 x84 x108 x116 x132 x140 </args>
    </group>
  </constraints>
</instance>

